
******************************************************************************
This program contains Ipopt, a library for large-scale nonlinear optimization.
 Ipopt is released as open source code under the Eclipse Public License (EPL).
         For more information visit http://projects.coin-or.org/Ipopt

This version of Ipopt was compiled from source code available at
    https://github.com/IDAES/Ipopt as part of the Institute for the Design of
    Advanced Energy Systems Process Systems Engineering Framework (IDAES PSE
    Framework) Copyright (c) 2018-2019. See https://github.com/IDAES/idaes-pse.

This version of Ipopt was compiled using HSL, a collection of Fortran codes
    for large-scale scientific computation.  All technical papers, sales and
    publicity material resulting from use of the HSL codes within IPOPT must
    contain the following acknowledgement:
        HSL, a collection of Fortran codes for large-scale scientific
        computation. See http://www.hsl.rl.ac.uk.
******************************************************************************

This is Ipopt version 3.13.2, running with linear solver ma27.

Number of nonzeros in equality constraint Jacobian...:     1172
Number of nonzeros in inequality constraint Jacobian.:        0
Number of nonzeros in Lagrangian Hessian.............:     1333

Total number of variables............................:      465
                     variables with only lower bounds:      124
                variables with lower and upper bounds:      279
                     variables with only upper bounds:        0
Total number of equality constraints.................:      462
Total number of inequality constraints...............:        0
        inequality constraints with only lower bounds:        0
   inequality constraints with lower and upper bounds:        0
        inequality constraints with only upper bounds:        0

iter    objective    inf_pr   inf_du lg(mu)  ||d||  lg(rg) alpha_du alpha_pr  ls
   0  0.0000000e+00 2.08e+00 3.11e-15  -1.0 0.00e+00    -  0.00e+00 0.00e+00   0
   1  2.0443829e+00 1.86e+00 2.18e+05  -1.0 4.98e+06    -  2.02e-02 2.49e-02h  4
   2  7.3610278e+00 1.82e+00 3.65e+05  -1.0 5.64e+06    -  1.93e-02 1.91e-02h  4
   3  2.9970078e+01 1.72e+00 6.70e+05  -1.0 6.82e+06    -  1.75e-02 3.36e-02h  3
   4  3.2568397e+01 1.71e+00 6.69e+05  -1.0 8.19e+06    -  2.00e-02 2.51e-03h  6
   5  3.3693205e+01 1.70e+00 6.67e+05  -1.0 1.18e+07    -  1.65e-02 1.11e-03h  7
   6  3.4539292e+01 1.70e+00 6.67e+05  -1.0 1.03e+07    -  2.21e-02 8.19e-04h  8
   7  4.1898267e+01 1.69e+00 6.82e+05  -1.0 1.21e+07    -  2.09e-02 5.59e-03h  5
   8  5.1909925e+01 1.68e+00 7.01e+05  -1.0 1.27e+07    -  2.86e-02 6.53e-03h  5
   9  5.5010960e+01 1.68e+00 7.02e+05  -1.0 1.42e+07    -  4.02e-02 1.67e-03h  7
iter    objective    inf_pr   inf_du lg(mu)  ||d||  lg(rg) alpha_du alpha_pr  ls
  10  5.6720267e+01 1.68e+00 7.03e+05  -1.0 1.51e+07    -  3.96e-02 8.64e-04h  8
  11  4.0203972e+02 1.98e+00 9.52e+06  -1.0 1.72e+07    -  3.61e-02 7.29e-02h  1
  12  4.1019696e+02 1.98e+00 9.51e+06  -1.0 4.09e+07    -  3.94e-02 5.82e-04h  1
  13  4.1219028e+02 1.98e+00 9.51e+06  -1.0 5.08e+07    -  6.21e-02 1.37e-04h  2
  14  4.2822501e+02 1.98e+00 9.54e+06  -1.0 5.96e+07    -  4.35e-02 7.65e-04h  5
  15  6.4454233e+02 2.03e+00 1.03e+07  -1.0 5.09e+07    -  8.39e-02 1.32e-02h  3
  16  1.1142177e+03 2.10e+00 1.17e+07  -1.0 7.59e+07    -  4.37e-02 1.50e-02h  3
  17  2.0123454e+03 2.17e+00 2.28e+07  -1.0 1.15e+08    -  7.61e-02 1.51e-02h  3
  18  3.0459860e+03 2.19e+00 3.35e+07  -1.0 1.82e+08    -  4.27e-02 8.86e-03h  4
  19  5.0411308e+03 2.22e+00 5.92e+07  -1.0 2.50e+08    -  7.48e-02 1.01e-02h  4
iter    objective    inf_pr   inf_du lg(mu)  ||d||  lg(rg) alpha_du alpha_pr  ls
  20  1.0465621e+04 2.30e+00 1.52e+08  -1.0 3.66e+08    -  3.22e-02 1.38e-02h  4
  21  1.8337012e+04 2.33e+00 2.33e+08  -1.0 6.10e+08    -  7.35e-02 9.19e-03h  5
  22  4.1310532e+04 2.39e+00 5.56e+08  -1.0 9.75e+08    -  2.49e-02 1.21e-02h  5
  23  3.4751068e+06 4.57e+00 9.02e+10  -1.0 2.34e+09    -  8.80e-02 1.24e-01w  1
  24  3.4751476e+06 4.57e+00 9.12e+10  -1.0 1.96e+10  -4.0 2.34e-03 1.01e-05w  1
  25  3.4714002e+06 4.57e+00 3.42e+12  -1.0 8.68e+09  -3.6 2.30e-02 9.73e-04w  1
  26  9.2208078e+04 2.43e+00 1.35e+09  -1.0 1.31e+10  -4.1 8.80e-02 7.78e-03h  4
  27  1.7760336e+05 2.45e+00 2.78e+09  -1.0 7.92e+09    -  6.52e-03 2.70e-03h  5
  28  3.1588270e+05 2.46e+00 6.28e+09  -1.0 2.63e+10    -  5.04e-03 9.57e-04h  7
  29r 3.1588270e+05 2.46e+00 1.00e+03   0.4 0.00e+00  -2.7 0.00e+00 3.65e-07R 12
iter    objective    inf_pr   inf_du lg(mu)  ||d||  lg(rg) alpha_du alpha_pr  ls
  30r 3.1588271e+05 2.38e+00 9.90e+02   0.4 6.17e+02    -  2.54e-02 9.06e-03f  1
  31r 3.1588274e+05 2.01e+00 9.80e+02   0.4 6.92e+02    -  1.16e-03 1.40e-02f  1
  32  3.1995880e+05 1.98e+00 2.01e+08  -1.0 5.04e+08    -  7.59e-07 1.86e-02h  2
  33  3.1552997e+05 1.97e+00 2.14e+08  -1.0 7.33e+08    -  2.73e-02 2.53e-03f  2
  34  3.1335469e+05 1.96e+00 2.40e+08  -1.0 1.30e+09    -  1.80e-02 3.52e-03f  2
  35  3.1339070e+05 1.96e+00 2.40e+08  -1.0 2.04e+09    -  1.37e-02 2.04e-04h  5
  36  3.1395636e+05 1.96e+00 2.41e+08  -1.0 2.60e+09    -  1.09e-02 2.58e-04h  5
  37  3.1516842e+05 1.96e+00 2.43e+08  -1.0 3.04e+09    -  9.56e-03 3.04e-04h  5
  38  3.1562174e+05 1.96e+00 2.44e+08  -1.0 3.48e+09    -  8.99e-03 8.38e-05h  7
  39  3.1579704e+05 1.96e+00 2.44e+08  -1.0 3.77e+09    -  1.03e-02 2.57e-05h  9
iter    objective    inf_pr   inf_du lg(mu)  ||d||  lg(rg) alpha_du alpha_pr  ls
  40r 3.1579704e+05 1.96e+00 1.00e+03   0.3 0.00e+00    -  0.00e+00 2.59e-07R 16
  41r 3.1579704e+05 1.49e+00 9.97e+02   0.3 1.50e+03    -  7.46e-03 1.76e-03f  1
  42  3.5659646e+05 1.49e+00 1.12e+06  -1.0 5.36e+09    -  5.72e-03 1.82e-03h  4
  43  3.6598944e+05 1.49e+00 1.40e+06  -1.0 1.08e+10    -  5.23e-03 2.65e-04h  5
  44  3.7334444e+05 1.49e+00 1.77e+06  -1.0 1.31e+10    -  7.19e-03 2.04e-04h  5
  45  3.8001817e+05 1.49e+00 2.49e+06  -1.0 1.61e+10    -  4.59e-03 1.82e-04h  5
  46  3.8291958e+05 1.49e+00 3.53e+06  -1.0 1.78e+10    -  5.20e-02 1.43e-04h  5
  47  3.9144610e+05 1.49e+00 7.12e+06  -1.0 3.69e+10    -  1.42e-03 9.28e-05h  7
  48  3.7031084e+05 1.49e+00 6.02e+07  -1.0 1.30e+10    -  3.15e-02 3.90e-04f  4
  49  1.1196886e+05 3.94e+00 5.80e+10  -1.0 2.16e+10    -  2.47e-02 2.73e-03f  1
iter    objective    inf_pr   inf_du lg(mu)  ||d||  lg(rg) alpha_du alpha_pr  ls
  50  2.0594218e+05 3.95e+00 5.67e+10  -1.0 2.17e+09    -  1.00e-02 1.26e-02h  4
  51  2.8291003e+05 3.95e+00 5.67e+10  -1.0 1.66e+10    -  3.17e-03 1.14e-03h  6
  52  1.7039506e+05 3.95e+00 5.67e+10  -1.0 1.48e+11    -  6.79e-03 2.28e-04f  2
  53  1.7033072e+05 3.94e+00 5.66e+10  -1.0 2.56e+08  -3.2 4.13e-02 3.63e-04f  2
  54  1.0115221e+05 3.93e+00 5.60e+10  -1.0 6.56e+09    -  4.19e-03 4.39e-03f  2
  55  1.0131604e+05 3.90e+00 5.60e+10  -1.0 2.15e+09    -  6.36e-04 7.35e-04h  4
  56  9.9840198e+04 3.49e+00 5.65e+10  -1.0 3.62e+10    -  6.66e-05 1.68e-04f  2
  57  9.9855913e+04 3.49e+00 5.65e+10  -1.0 2.68e+08  -3.7 2.95e-02 5.88e-05h  7
  58  9.9967874e+04 3.49e+00 5.65e+10  -1.0 5.38e+08  -4.2 1.68e-02 7.32e-05h  7
  59  1.0022618e+05 3.49e+00 5.65e+10  -1.0 1.25e+09  -4.6 8.79e-03 7.06e-05h  7
iter    objective    inf_pr   inf_du lg(mu)  ||d||  lg(rg) alpha_du alpha_pr  ls
  60  1.0775129e+05 3.08e+00 5.64e+10  -1.0 9.05e+09  -5.1 7.51e-04 4.52e-04w  1
  61  1.0817664e+05 3.08e+00 5.64e+10  -1.0 1.61e+09  -4.7 2.03e-02 8.18e-05w  1
  62  1.0817775e+05 3.08e+00 5.64e+10  -1.0 9.56e+09  -5.2 1.24e-03 5.59e-08w  1
  63r 1.0022618e+05 3.49e+00 1.00e+03   0.5 0.00e+00    -  0.00e+00 4.42e-07R 10
  64r 1.0022618e+05 3.09e+00 9.96e+02   0.5 4.21e+03    -  8.16e-03 3.17e-03f  1
  65  1.0024675e+05 3.08e+00 7.48e+03  -1.0 2.77e+08    -  3.56e-02 6.80e-05h  7
  66  1.0044657e+05 3.08e+00 6.62e+04  -1.0 1.09e+09    -  3.22e-02 8.78e-05h  7
  67  1.1433553e+05 3.08e+00 7.10e+06  -1.0 4.74e+09    -  8.23e-03 1.04e-03h  5
  68  1.4562909e+05 3.08e+00 1.84e+07  -1.0 6.94e+09    -  6.33e-03 1.37e-03h  5
  69  2.1989586e+05 3.07e+00 8.42e+07  -1.0 1.13e+10    -  4.72e-03 1.59e-03h  5
iter    objective    inf_pr   inf_du lg(mu)  ||d||  lg(rg) alpha_du alpha_pr  ls
  70  2.2561640e+05 3.07e+00 8.61e+07  -1.0 5.83e+09    -  7.38e-03 2.05e-04h  6
  71  2.2758715e+05 3.07e+00 8.61e+07  -1.0 5.70e+09    -  4.59e-03 6.54e-05h  7
  72  2.2841199e+05 3.07e+00 8.60e+07  -1.0 5.46e+09    -  3.44e-03 2.68e-05h  8
  73  2.2918312e+05 3.07e+00 8.60e+07  -1.0 5.31e+09    -  3.16e-03 2.51e-05h  8
  74r 2.2918312e+05 3.07e+00 9.99e+02   0.5 0.00e+00    -  0.00e+00 3.80e-07R 14
  75r 2.2918312e+05 2.98e+00 9.88e+02   0.5 1.06e+03    -  5.60e-02 1.09e-02f  1
  76r 2.2918312e+05 2.76e+00 9.63e+02   0.5 1.04e+03    -  1.11e-01 2.54e-02f  1
  77  2.3536823e+05 2.76e+00 5.67e+04  -1.0 4.68e+09    -  3.75e-03 2.45e-04h  6
  78  2.4195832e+05 2.76e+00 1.79e+05  -1.0 4.61e+09    -  2.94e-03 2.40e-04h  6
  79  2.5146594e+05 2.76e+00 1.02e+06  -1.0 2.92e+09    -  4.52e-03 5.52e-04h  5
iter    objective    inf_pr   inf_du lg(mu)  ||d||  lg(rg) alpha_du alpha_pr  ls
  80  2.6219415e+05 2.75e+00 1.12e+06  -1.0 5.38e+09    -  5.95e-03 4.72e-04h  5
  81  2.8550051e+05 2.75e+00 1.38e+06  -1.0 1.24e+10    -  9.70e-03 5.15e-04h  5
  82  2.9267009e+05 2.75e+00 1.68e+06  -1.0 9.96e+09    -  1.22e-02 2.67e-04h  4
  83  2.9792268e+05 2.75e+00 5.25e+09  -1.0 1.21e+10  -5.6 4.37e-03 9.17e-05h  6
  84  2.9827869e+05 2.75e+00 2.44e+10  -1.0 1.03e+10  -5.2 2.17e-02 1.71e-04h  4
  85  2.9154668e+05 2.75e+00 1.48e+10  -1.0 4.43e+09  -5.7 2.89e-02 2.88e-04f  5
  86  2.8803504e+05 2.75e+00 1.41e+10  -1.0 3.08e+09  -6.2 4.12e-02 2.30e-04f  6
  87  1.1522007e+05 3.52e+00 8.99e+11  -1.0 7.86e+09  -6.6 1.68e-02 8.34e-03w  1
  88  1.1507116e+05 3.52e+00 8.99e+11  -1.0 5.38e+09  -4.4 2.02e-02 1.81e-05w  1
  89  1.1503962e+05 1.18e+01 8.99e+11  -1.0 3.55e+08  -4.0 6.11e-02 7.64e-04w  1
iter    objective    inf_pr   inf_du lg(mu)  ||d||  lg(rg) alpha_du alpha_pr  ls
  90  1.6380752e+05 2.73e+00 2.25e+11  -1.0 2.51e+11  -3.6 1.68e-02 4.17e-03f  1
  91  1.6294532e+05 2.73e+00 2.25e+11  -1.0 7.55e+07  -4.0 8.05e-02 3.83e-03f  1
  92  1.6294818e+05 2.73e+00 2.25e+11  -1.0 2.37e+08  -4.5 1.16e-01 5.30e-06h  2
  93  1.6311110e+05 2.73e+00 2.25e+11  -1.0 4.01e+10  -5.0 1.30e-03 3.19e-06h  8
  94  1.6375296e+05 2.73e+00 2.25e+11  -1.0 1.37e+10  -4.6 1.43e-03 3.28e-05h  5
  95r 1.6375296e+05 2.73e+00 1.00e+03   0.4 0.00e+00  -5.0 0.00e+00 4.21e-07R 11
  96r 1.6375295e+05 2.67e+00 9.87e+02   0.4 1.11e+03    -  6.01e-02 1.18e-02f  1
  97r 1.6375292e+05 2.48e+00 9.36e+02   0.4 1.10e+03    -  5.35e-02 5.17e-02f  1
  98r 1.6375292e+05 2.48e+00 9.33e+02   0.4 1.05e+03    -  1.34e-03 3.04e-03f  1
  99r 1.6375291e+05 2.47e+00 9.09e+02   0.4 1.04e+03    -  2.19e-02 3.64e-02f  1
iter    objective    inf_pr   inf_du lg(mu)  ||d||  lg(rg) alpha_du alpha_pr  ls
 100r 1.6375290e+05 2.46e+00 9.02e+02   0.4 1.00e+03    -  8.15e-03 1.27e-02f  1
 101r 1.6375289e+05 2.46e+00 8.81e+02   0.4 9.91e+02    -  5.30e-02 3.83e-02f  1
 102r 1.6375288e+05 2.43e+00 8.75e+02   0.4 9.53e+02    -  1.88e-02 4.62e-02f  1
 103  1.6372797e+05 2.43e+00 1.60e+05  -1.0 1.47e+09    -  4.69e-02 9.93e-06f  1
 104  1.6928079e+05 2.43e+00 8.39e+06  -1.0 3.21e+09    -  1.27e-02 7.87e-04h  5
 105  1.6971261e+05 2.43e+00 8.42e+06  -1.0 3.81e+09    -  9.54e-03 4.65e-05h  8
 106r 1.6971261e+05 2.43e+00 1.00e+03   0.4 0.00e+00    -  0.00e+00 4.67e-07R 17
 107r 1.6971261e+05 2.32e+00 9.91e+02   0.4 8.94e+02    -  1.72e-02 7.81e-03f  1
 108r 1.6971261e+05 2.22e+00 9.87e+02   0.4 8.72e+02    -  1.43e-03 4.47e-03f  1
 109r 1.6971261e+05 2.04e+00 9.80e+02   0.4 8.59e+02    -  2.84e-02 6.89e-03f  1
iter    objective    inf_pr   inf_du lg(mu)  ||d||  lg(rg) alpha_du alpha_pr  ls
 110  1.6826266e+05 2.04e+00 3.42e+06  -1.0 1.49e+09    -  6.59e-02 5.13e-04f  4
 111  1.7942865e+05 2.03e+00 4.70e+07  -1.0 2.23e+09    -  1.28e-02 1.88e-03h  5
 112r 1.7942865e+05 2.03e+00 9.99e+02   0.3 0.00e+00    -  0.00e+00 4.37e-07R 17
 113r 1.7942865e+05 2.00e+00 9.97e+02   0.3 2.02e+03    -  3.07e-03 1.86e-03f  1
 114r 1.7942865e+05 1.92e+00 9.92e+02   0.3 1.22e+03    -  6.48e-02 4.53e-03f  1
 115r 1.7942865e+05 1.27e+00 9.84e+02   0.3 2.89e+03    -  1.19e-02 7.98e-03f  1
 116  2.4534835e+05 1.25e+00 4.05e+08  -1.0 2.51e+09    -  9.33e-03 7.07e-03h  3
 117  2.4916196e+05 1.25e+00 4.05e+08  -1.0 3.88e+09    -  1.67e-02 2.17e-04h  8
 118r 2.4916196e+05 1.25e+00 9.99e+02   0.1 0.00e+00    -  0.00e+00 4.42e-07R 17
 119r 2.4916196e+05 1.25e+00 9.91e+02   0.1 5.16e+02    -  5.72e-02 8.18e-03f  1
iter    objective    inf_pr   inf_du lg(mu)  ||d||  lg(rg) alpha_du alpha_pr  ls
 120r 2.4916197e+05 1.26e+00 9.40e+02   0.1 4.80e+02    -  3.75e-02 5.10e-02f  1
 121r 2.4916198e+05 1.27e+00 1.93e+03   0.1 3.32e+02    -  1.97e-01 5.15e-02f  1
 122r 2.4916202e+05 1.28e+00 7.41e+02   0.1 1.43e+02    -  1.10e-01 2.67e-01f  1
 123r 2.4916203e+05 1.28e+00 6.75e+02   0.1 1.04e+02    -  1.03e-01 1.44e-01f  1
 124r 2.4916203e+05 1.28e+00 1.17e+03   0.1 1.11e-01   4.0 9.90e-01 7.82e-01f  1
 125r 2.4916203e+05 1.28e+00 2.38e+03   0.1 6.37e-01   3.5 6.10e-02 1.11e-01H  1
 126r 2.4916203e+05 1.28e+00 4.86e+03   0.1 3.33e-01   4.9 6.52e-02 3.31e-02f  1
 127r 2.4916203e+05 1.28e+00 2.90e+03   0.1 1.46e-01   4.4 1.53e-01 4.44e-03f  2
 128r 2.4916203e+05 1.28e+00 3.20e+03   0.1 1.13e-01   3.9 8.75e-02 3.69e-01h  1
 129r 2.4916203e+05 1.28e+00 4.09e+03   0.1 6.13e-02   5.2 3.99e-02 4.88e-02h  1
iter    objective    inf_pr   inf_du lg(mu)  ||d||  lg(rg) alpha_du alpha_pr  ls
 130r 2.4916203e+05 1.28e+00 1.29e+04   0.1 6.60e-02   5.7 3.74e-02 1.60e-01h  1
 131r 2.4916203e+05 1.28e+00 3.14e+04   0.1 4.99e-02   6.1 4.79e-01 1.13e-01H  1
 132r 2.4916203e+05 1.28e+00 2.44e+04   0.1 8.97e-02   5.6 1.13e-01 5.68e-02F  1
 133r 2.4916203e+05 1.28e+00 1.52e+04   0.1 1.08e-01   5.1 2.58e-01 2.07e-02F  1
 134r 2.4916203e+05 1.28e+00 2.72e+04   0.1 6.22e-02   5.6 6.91e-02 1.95e-01f  3
 135r 2.4916203e+05 1.28e+00 6.68e+03   0.1 9.02e-03   5.1 9.90e-01 4.05e-01f  1
 136r 2.4916203e+05 1.28e+00 5.79e+03   0.1 5.72e-02   4.6 1.57e-01 1.91e-01f  1
 137r 2.4916203e+05 1.28e+00 3.59e+03   0.1 5.46e-02   4.1 9.90e-01 2.84e-01f  2
 138r 2.4916203e+05 1.28e+00 3.45e+03   0.1 1.09e-01   3.6 1.23e-01 1.26e-01h  1
 139r 2.4916203e+05 1.28e+00 3.64e+03   0.1 1.99e-01   3.2 6.12e-01 2.61e-01h  1
iter    objective    inf_pr   inf_du lg(mu)  ||d||  lg(rg) alpha_du alpha_pr  ls
 140r 2.4916203e+05 1.28e+00 1.90e+03   0.1 8.85e-02   4.5 6.11e-02 7.31e-03f  2
 141r 2.4916203e+05 1.28e+00 8.28e+02   0.1 1.08e-01   4.0 3.12e-02 6.05e-02H  1
 142r 2.4916203e+05 1.28e+00 8.64e+03   0.1 1.44e-01   3.5 8.12e-01 5.28e-02h  2
 143r 2.4916203e+05 1.28e+00 8.66e+03   0.1 1.24e-02   4.9 9.85e-01 1.99e-08h 24
 144r 2.4916203e+05 1.28e+00 7.10e+03   0.1 4.51e-02   4.4 8.97e-01 2.62e-01f  1
 145r 2.4916203e+05 1.28e+00 1.28e+03   0.1 4.84e-02   3.9 1.00e+00 1.36e-01f  1
 146r 2.4916203e+05 1.28e+00 1.37e+03   0.1 1.31e-01   3.4 4.21e-01 2.08e-01h  1
 147r 2.4916203e+05 1.28e+00 4.12e+02   0.1 7.87e-02   3.9 4.53e-02 5.87e-02h  1
 148r 2.4916203e+05 1.28e+00 2.06e+03   0.1 1.68e+00   3.4 4.90e-03 1.16e-02f  4
 149r 2.4916203e+05 1.28e+00 1.57e+03   0.1 6.72e-02   4.7 8.89e-01 1.71e-01f  1
iter    objective    inf_pr   inf_du lg(mu)  ||d||  lg(rg) alpha_du alpha_pr  ls
 150r 2.4916203e+05 1.28e+00 7.77e+02   0.1 4.66e-02   4.2 6.22e-01 2.50e-01f  3
 151r 2.4916203e+05 1.28e+00 3.46e+02   0.1 7.53e-02   3.8 4.38e-01 1.86e-01f  1
 152r 2.4916203e+05 1.28e+00 5.26e+03   0.1 1.87e-01   3.3 3.81e-01 1.77e-02h  5
 153r 2.4916203e+05 1.28e+00 3.94e+02   0.1 9.14e-02   3.7 1.00e+00 4.79e-01f  1
 154r 2.4916203e+05 1.28e+00 4.46e+02   0.1 1.16e-01   3.2 3.54e-01 4.02e-01h  1
 155r 2.4916203e+05 1.28e+00 4.67e+03   0.1 1.19e-01   4.6 1.56e-01 4.37e-01h  1
 156r 2.4916203e+05 1.28e+00 6.13e+03   0.1 4.04e-02   5.9 2.52e-01 7.36e-01F  1
 157r 2.4916203e+05 1.28e+00 6.14e+03   0.1 2.99e-02   5.4 1.04e-01 2.62e-03f  4
 158r 2.4916203e+05 1.28e+00 6.23e+03   0.1 1.06e-01   4.9 7.45e-01 1.10e-01H  1
 159r 2.4916203e+05 1.28e+00 5.90e+03   0.1 5.06e-02   4.5 1.47e-01 7.15e-02h  4
iter    objective    inf_pr   inf_du lg(mu)  ||d||  lg(rg) alpha_du alpha_pr  ls
 160r 2.4916203e+05 1.28e+00 4.98e+03   0.1 7.06e-02   4.0 8.73e-01 6.25e-02h  5
 161r 2.4916203e+05 1.28e+00 4.51e+03   0.1 4.59e-02   3.5 7.11e-01 2.17e-01h  3
 162r 2.4916203e+05 1.27e+00 1.38e+03   0.1 1.25e-01   3.0 1.00e+00 5.80e-01f  1
 163r 2.4916203e+05 1.27e+00 1.28e+03   0.1 1.96e+00   2.6 1.18e-01 7.50e-02f  1
 164r 2.4916203e+05 1.28e+00 5.27e+04   0.1 1.00e+00   2.1 1.00e+00 7.10e-01f  1
 165r 2.4916203e+05 1.28e+00 1.66e+04   0.1 2.11e+00   1.6 2.20e-01 3.11e-01f  1
 166r 2.4916203e+05 1.28e+00 1.66e+04   0.1 1.67e-02   3.8 1.00e+00 1.00e+00h  1
 167r 2.4916203e+05 1.28e+00 1.51e+04   0.1 5.17e-01   3.4 2.64e-02 9.20e-02H  1
 168r 2.4916203e+05 1.28e+00 5.38e+03   0.1 1.57e-01   2.9 1.00e-01 1.63e-01F  1
 169r 2.4916203e+05 1.28e+00 4.70e+03   0.1 5.62e-02   3.3 1.00e+00 5.88e-01f  1
iter    objective    inf_pr   inf_du lg(mu)  ||d||  lg(rg) alpha_du alpha_pr  ls
 170r 2.4916203e+05 1.28e+00 3.97e+03   0.1 6.72e-02   4.6 4.04e-02 3.82e-01h  2
 171r 2.4916203e+05 1.28e+00 2.09e+03   0.1 2.03e-02   4.2 6.42e-01 5.25e-01f  1
 172r 2.4916203e+05 1.28e+00 1.02e+03   0.1 1.60e-01   4.6 3.69e-02 2.44e-01h  1
 173r 2.4916203e+05 1.28e+00 1.32e+03   0.1 3.35e-02   4.1 1.00e+00 1.43e-01f  1
 174r 2.4916203e+05 1.28e+00 1.31e+03   0.1 4.45e-02   4.5 5.23e-01 3.14e-01f  1
 175r 2.4916203e+05 1.28e+00 3.24e+02   0.1 2.90e-02   4.1 1.00e+00 1.00e+00f  1
 176r 2.4916203e+05 1.28e+00 2.73e+02   0.1 6.85e-02   3.6 6.10e-01 1.00e+00f  1
 177r 2.4916203e+05 1.28e+00 2.50e+02   0.1 8.13e-02   3.1 1.00e+00 7.64e-01h  1
 178r 2.4916203e+05 1.28e+00 7.96e+01   0.1 1.79e-01   2.6 1.00e+00 1.00e+00f  1
 179r 2.4916203e+05 1.28e+00 3.86e+02   0.1 7.10e-03   3.9 1.00e+00 5.00e-01f  1
iter    objective    inf_pr   inf_du lg(mu)  ||d||  lg(rg) alpha_du alpha_pr  ls
 180r 2.4916203e+05 1.28e+00 2.88e+01   0.1 6.15e-02   3.5 1.00e+00 1.00e+00f  1
 181r 2.4916203e+05 1.29e+00 2.68e+01  -0.6 3.66e-02   3.0 8.03e-01 8.22e-01f  1
 182r 2.4916203e+05 1.29e+00 2.35e+02  -0.6 6.14e-02   2.5 1.00e+00 5.74e-01f  1
 183r 2.4916203e+05 1.29e+00 1.07e+02  -0.6 4.78e-02   2.9 6.90e-01 1.00e+00f  1
 184r 2.4916203e+05 1.29e+00 2.25e+02  -0.6 1.17e-02   3.4 1.00e+00 4.74e-01f  1
 185r 2.4916203e+05 1.30e+00 4.15e+01  -0.6 5.33e-02   2.9 1.00e+00 1.00e+00f  1
 186r 2.4916203e+05 1.30e+00 5.53e+01  -0.6 2.72e-02   3.3 1.00e+00 9.19e-01f  1
 187r 2.4916203e+05 1.30e+00 1.12e+02  -0.6 2.14e-01   2.8 6.75e-01 6.16e-01f  1
 188r 2.4916203e+05 1.30e+00 2.45e+03  -0.6 2.50e-02   3.3 1.00e+00 5.29e-02f  1
 189r 2.4916203e+05 1.30e+00 3.09e+01  -0.6 5.03e-02   2.8 1.00e+00 1.00e+00f  1
iter    objective    inf_pr   inf_du lg(mu)  ||d||  lg(rg) alpha_du alpha_pr  ls
 190r 2.4916203e+05 1.30e+00 7.53e+01  -0.6 1.55e-01   2.3 9.91e-01 1.00e+00f  1
 191r 2.4916203e+05 1.29e+00 1.30e+01  -0.6 1.18e-01   1.8 1.00e+00 1.00e+00f  1
 192r 2.4916203e+05 1.30e+00 3.89e+01  -1.3 1.93e-01   1.4 7.92e-01 8.78e-01f  1
 193r 2.4916203e+05 1.30e+00 1.59e+02  -1.3 6.48e-01   0.9 2.09e-01 8.03e-02f  1
 194r 2.4916203e+05 1.30e+00 1.41e+02  -1.3 2.19e-01   1.3 1.00e+00 6.59e-01f  1
 195r 2.4916203e+05 1.30e+00 1.98e+02  -1.3 7.63e-02   1.7 1.00e+00 6.55e-01f  1
 196r 2.4916203e+05 1.30e+00 5.38e+02  -1.3 1.83e-01   1.3 1.00e+00 5.76e-01f  1
 197r 2.4916203e+05 1.32e+00 1.11e+02  -1.3 4.85e-01   0.8 7.07e-01 8.87e-01f  1
 198r 2.4916203e+05 1.32e+00 1.25e+02  -1.3 2.48e-02   2.1 1.00e+00 6.16e-01f  1
 199r 2.4916203e+05 1.32e+00 1.80e+01  -1.3 7.24e-02   1.6 9.41e-01 1.00e+00f  1
iter    objective    inf_pr   inf_du lg(mu)  ||d||  lg(rg) alpha_du alpha_pr  ls
 200r 2.4916203e+05 1.31e+00 3.83e+00  -1.3 2.69e-01   1.2 1.00e+00 1.00e+00f  1
 201r 2.4916203e+05 1.31e+00 1.35e+01  -1.3 4.44e-02   2.5 1.00e+00 1.00e+00f  1
 202r 2.4916203e+05 1.31e+00 4.36e+00  -1.3 3.75e-02   2.0 1.00e+00 9.88e-01f  1
 203r 2.4916203e+05 1.31e+00 4.03e+00  -1.3 1.20e-01   1.5 1.00e+00 1.00e+00f  1
 204r 2.4916203e+05 1.31e+00 4.07e+00  -1.3 4.52e-02   2.0 1.00e+00 1.00e+00f  1
 205r 2.4916203e+05 1.31e+00 7.97e+01  -1.3 1.45e-01   1.5 1.00e+00 6.82e-01f  1
 206r 2.4916203e+05 1.31e+00 7.42e+02  -1.3 3.63e-01   1.0 1.00e+00 1.73e-01f  1
 207r 2.4916203e+05 1.31e+00 5.96e+02  -1.3 2.24e+00   0.5 1.52e-01 1.79e-01f  1
 208r 2.4916203e+05 1.31e+00 8.08e+02  -1.3 3.83e-01   0.9 5.51e-01 5.18e-02f  1
 209r 2.4916203e+05 1.31e+00 7.78e+02  -1.3 1.02e+00   0.5 5.88e-02 4.16e-02f  1
iter    objective    inf_pr   inf_du lg(mu)  ||d||  lg(rg) alpha_du alpha_pr  ls
 210r 2.4916203e+05 1.31e+00 4.73e+02  -1.3 7.61e-02   1.8 1.00e+00 3.60e-01f  1
 211r 2.4916203e+05 1.31e+00 3.33e+02  -1.3 1.00e-01   1.3 1.00e+00 5.81e-01f  1
 212r 2.4916203e+05 1.31e+00 1.12e+02  -1.3 3.42e-01   0.8 9.21e-01 7.85e-01f  1
 213r 2.4916203e+05 1.31e+00 1.18e+02  -1.3 2.82e+01   0.4 9.64e-03 5.19e-03f  1
 214r 2.4916203e+05 1.31e+00 5.88e+01  -1.3 4.81e-02   1.7 1.00e+00 6.51e-01f  1
 215r 2.4916203e+05 1.31e+00 1.36e+01  -1.3 1.52e-01   1.2 1.00e+00 9.15e-01f  1
 216r 2.4916203e+05 1.31e+00 2.29e+01  -1.3 5.56e-01   0.7 3.60e-01 3.92e-01f  1
 217r 2.4916203e+05 1.31e+00 3.81e+00  -1.3 1.99e-01   1.2 1.00e+00 1.00e+00f  1
 218r 2.4916203e+05 1.30e+00 1.15e+02  -1.3 8.31e-01   0.7 1.95e-01 4.89e-01f  1
 219r 2.4916203e+05 1.30e+00 1.28e+02  -1.3 3.90e-02   2.9 1.00e+00 6.33e-01f  1
iter    objective    inf_pr   inf_du lg(mu)  ||d||  lg(rg) alpha_du alpha_pr  ls
 220r 2.4916203e+05 1.30e+00 1.31e+02  -1.3 4.63e+00   2.4 4.77e-03 1.27e-02f  1
 221r 2.4916203e+05 1.30e+00 6.54e+01  -1.3 8.75e-02   2.9 1.00e+00 1.00e+00f  1
 222r 2.4916203e+05 1.30e+00 7.62e+01  -1.3 4.05e-02   3.3 1.00e+00 7.39e-01f  1
 223r 2.4916203e+05 1.30e+00 7.36e+01  -1.3 4.76e-03   2.8 1.00e+00 3.78e-01f  1
 224r 2.4916203e+05 1.30e+00 3.16e+00  -1.3 1.43e-02   2.3 1.00e+00 1.00e+00f  1
 225r 2.4916203e+05 1.30e+00 3.16e+00  -1.3 4.29e-02   1.9 1.00e+00 1.00e+00f  1
 226r 2.4916203e+05 1.30e+00 3.17e+00  -1.3 1.29e-01   1.4 1.00e+00 1.00e+00f  1
 227r 2.4916203e+05 1.30e+00 5.12e+00  -1.3 3.86e-01   0.9 1.00e+00 1.00e+00f  1
 228r 2.4916203e+05 1.30e+00 1.23e+01  -1.3 7.02e-02   2.2 1.00e+00 1.00e+00f  1
 229r 2.4916203e+05 1.30e+00 2.37e+01  -1.3 1.00e-01   1.8 1.00e+00 8.77e-01f  1
iter    objective    inf_pr   inf_du lg(mu)  ||d||  lg(rg) alpha_du alpha_pr  ls
 230r 2.4916203e+05 1.29e+00 3.17e+00  -1.3 1.63e-01   1.3 1.00e+00 1.00e+00f  1
 231r 2.4916203e+05 1.28e+00 3.18e+00  -1.3 4.90e-01   0.8 1.00e+00 1.00e+00f  1
 232r 2.4916203e+05 1.28e+00 3.18e+00  -1.3 1.84e-01   1.2 1.00e+00 1.00e+00f  1
 233r 2.4916203e+05 1.26e+00 3.18e+00  -1.3 5.51e-01   0.8 1.00e+00 1.00e+00f  1
 234r 2.4916203e+05 1.25e+00 1.04e+02  -1.3 2.06e-01   1.2 1.00e+00 1.00e+00f  1
 235r 2.4916203e+05 1.22e+00 2.02e+02  -1.3 6.12e-01   0.7 2.47e-01 8.84e-01f  1
 236r 2.4916203e+05 1.22e+00 2.29e+02  -1.3 3.46e-02   2.9 7.96e-01 4.54e-01f  1
 237r 2.4916203e+05 1.22e+00 6.22e+01  -1.3 6.79e-02   3.4 8.24e-01 1.00e+00f  1
 238r 2.4916203e+05 1.22e+00 2.41e+01  -1.3 2.46e-02   2.9 5.68e-01 6.20e-01f  1
 239r 2.4916203e+05 1.22e+00 6.82e+01  -1.3 3.29e-02   3.3 1.00e+00 1.00e+00f  1
iter    objective    inf_pr   inf_du lg(mu)  ||d||  lg(rg) alpha_du alpha_pr  ls
 240r 2.4916203e+05 1.22e+00 3.95e+01  -1.3 8.17e-02   2.8 4.32e-01 4.89e-01f  1
 241r 2.4916203e+05 1.22e+00 5.80e+01  -1.3 3.15e-02   3.3 8.20e-01 1.00e+00f  1
 242r 2.4916203e+05 1.22e+00 7.75e+01  -1.3 2.52e-01   2.8 4.25e-01 2.09e-01f  1
 243r 2.4916203e+05 1.22e+00 3.98e+02  -1.3 3.24e-02   3.2 1.00e+00 4.27e-02f  1
 244r 2.4916203e+05 1.22e+00 1.46e+02  -1.3 7.84e-02   2.7 5.36e-01 9.45e-01f  1
 245r 2.4916203e+05 1.22e+00 4.94e+02  -1.3 2.86e-02   3.2 1.00e+00 4.29e-02f  1
 246r 2.4916203e+05 1.22e+00 1.01e+03  -1.3 4.87e-02   2.7 1.00e+00 1.85e-01f  1
 247r 2.4916203e+05 1.22e+00 4.37e+00  -1.3 4.12e-02   2.2 1.00e+00 1.00e+00f  1
 248r 2.4916203e+05 1.22e+00 2.91e+00  -1.3 5.39e-02   1.7 1.00e+00 1.00e+00f  1
 249r 2.4916203e+05 1.22e+00 6.07e+00  -1.3 4.23e-02   2.2 1.00e+00 1.00e+00f  1
iter    objective    inf_pr   inf_du lg(mu)  ||d||  lg(rg) alpha_du alpha_pr  ls
 250r 2.4916203e+05 1.22e+00 2.14e+00  -1.3 3.81e-02   1.7 1.00e+00 1.00e+00f  1
 251r 2.4916203e+05 1.22e+00 6.81e+00  -2.0 6.83e-02   2.1 8.20e-01 8.15e-01f  1
 252r 2.4916203e+05 1.23e+00 1.83e+00  -2.0 4.29e-02   1.6 1.00e+00 1.00e+00f  1
 253r 2.4916203e+05 1.22e+00 5.43e+01  -2.0 1.29e-01   1.2 8.31e-01 1.00e+00f  1
 254r 2.4916203e+05 1.22e+00 3.51e+02  -2.0 2.73e-02   3.4 1.00e+00 2.94e-01f  1
 255r 2.4916203e+05 1.22e+00 2.43e+02  -2.0 4.99e-02   2.9 4.24e-01 1.00e+00f  1
 256r 2.4916203e+05 1.23e+00 9.49e+01  -2.0 4.40e-02   3.3 1.00e+00 1.00e+00f  1
 257r 2.4916203e+05 1.22e+00 1.30e+03  -2.0 4.15e-01   2.9 8.47e-02 3.52e-01f  1
 258r 2.4916203e+05 1.22e+00 1.60e+03  -2.0 1.71e-01   3.3 7.71e-01 2.26e-02f  1
 259r 2.4916203e+05 1.22e+00 1.95e+03  -2.0 4.89e-02   3.7 3.15e-01 2.07e-01f  1
iter    objective    inf_pr   inf_du lg(mu)  ||d||  lg(rg) alpha_du alpha_pr  ls
 260r 2.4916203e+05 1.22e+00 1.38e+03  -2.0 1.93e-01   3.2 1.01e-02 1.27e-01f  1
 261r 2.4916203e+05 1.22e+00 4.46e+03  -2.0 1.72e-01   2.8 8.38e-01 1.41e-03f  1
 262r 2.4916203e+05 1.22e+00 2.07e+03  -2.0 1.80e-02   2.3 2.46e-01 6.56e-01f  1
 263r 2.4916203e+05 1.23e+00 3.00e+00  -2.0 5.96e-03   2.7 1.00e+00 1.00e+00f  1
 264r 2.4916203e+05 1.23e+00 1.01e+01  -2.0 1.40e-02   2.2 7.55e-01 1.00e+00f  1
 265r 2.4916203e+05 1.23e+00 3.37e+01  -2.0 5.12e-02   2.7 8.83e-01 1.00e+00f  1
 266r 2.4916203e+05 1.23e+00 6.38e+01  -2.0 1.45e-01   2.2 1.95e-01 3.53e-02f  1
 267r 2.4916203e+05 1.23e+00 1.41e+01  -2.0 3.54e-02   2.6 1.00e+00 1.00e+00f  1
 268r 2.4916203e+05 1.23e+00 1.10e+01  -2.0 1.04e-02   3.0 1.00e+00 1.00e+00f  1
 269r 2.4916203e+05 1.23e+00 3.83e+01  -2.0 2.99e-02   2.5 1.00e+00 5.53e-01f  1
iter    objective    inf_pr   inf_du lg(mu)  ||d||  lg(rg) alpha_du alpha_pr  ls
 270r 2.4916203e+05 1.23e+00 1.13e+01  -2.0 1.20e-02   3.0 1.00e+00 1.00e+00f  1
 271r 2.4916203e+05 1.23e+00 2.94e+01  -2.0 6.22e-02   2.5 1.00e+00 1.00e+00f  1
 272r 2.4916203e+05 1.23e+00 8.52e+01  -2.0 3.46e-02   2.9 7.18e-01 1.00e+00f  1
 273r 2.4916203e+05 1.23e+00 2.07e+02  -2.0 1.24e-01   2.4 7.51e-01 2.65e-02f  1
 274r 2.4916203e+05 1.23e+00 3.27e+02  -2.0 1.19e+00   2.0 1.14e-01 2.76e-01f  1
 275r 2.4916203e+05 1.23e+00 8.16e+01  -2.0 6.28e-02   1.5 1.00e+00 1.00e+00h  1
 276r 2.4916203e+05 1.23e+00 5.62e+00  -2.0 6.78e-02   1.9 9.82e-01 1.00e+00f  1
 277r 2.4916203e+05 1.23e+00 1.32e+02  -2.0 6.04e-02   2.3 1.00e+00 4.38e-01f  1
 278r 2.4916203e+05 1.23e+00 1.96e+00  -2.0 2.66e-02   1.9 1.00e+00 1.00e+00f  1
 279r 2.4916203e+05 1.23e+00 1.96e+00  -2.0 8.00e-02   1.4 1.00e+00 1.00e+00f  1
iter    objective    inf_pr   inf_du lg(mu)  ||d||  lg(rg) alpha_du alpha_pr  ls
 280r 2.4916203e+05 1.24e+00 1.27e+01  -2.0 2.41e-01   0.9 8.39e-01 1.00e+00f  1
 281r 2.4916203e+05 1.26e+00 7.76e+01  -2.0 2.56e+00   0.4 3.12e-02 6.55e-02f  1
 282r 2.4916203e+05 1.26e+00 4.11e+02  -2.0 2.74e-01   0.9 1.00e+00 2.95e-02f  1
 283r 2.4916203e+05 1.25e+00 5.17e+02  -2.0 8.19e-01   0.4 1.00e+00 9.33e-02f  1
 284r 2.4916203e+05 1.25e+00 1.10e+01  -2.0 3.07e-01   0.8 1.00e+00 9.84e-01f  1
 285r 2.4916203e+05 1.24e+00 5.64e+01  -2.0 9.22e-01   0.3 1.00e+00 5.62e-01f  1
 286r 2.4916203e+05 1.21e+00 1.09e+02  -2.0 2.26e+01  -0.1 6.09e-02 2.60e-02f  1
 287r 2.4916203e+05 1.19e+00 8.80e+01  -2.0 1.18e+00   0.3 3.39e-01 5.72e-01f  1
 288r 2.4916203e+05 1.19e+00 1.04e+02  -2.0 5.46e-02   1.6 1.00e+00 9.06e-02f  1
 289r 2.4916203e+05 1.19e+00 5.27e+02  -2.0 1.56e-01   1.1 1.00e+00 1.04e-01f  1
iter    objective    inf_pr   inf_du lg(mu)  ||d||  lg(rg) alpha_du alpha_pr  ls
 290r 2.4916203e+05 1.17e+00 2.34e+00  -2.0 5.13e-01   0.7 1.00e+00 1.00e+00f  1
 291r 2.4916203e+05 1.05e+00 1.21e+02  -2.0 2.57e+00   0.2 9.67e-01 1.00e+00f  1
 292  2.5062648e+05 1.05e+00 5.70e+04  -1.0 2.94e+09    -  9.25e-07 1.30e-04h  8
 293r 2.5062648e+05 1.05e+00 9.99e+02   0.0 0.00e+00    -  0.00e+00 3.24e-07R 10
 294r 2.5062648e+05 9.20e-01 9.90e+02   0.0 2.84e+02    -  2.08e-02 8.79e-03f  1
 295  2.5062940e+05 9.20e-01 8.65e+01  -1.0 9.49e+08    -  4.11e-04 2.34e-06h  2
 296  2.5070237e+05 9.20e-01 6.37e+03  -1.0 9.50e+08    -  8.68e-05 3.70e-05H  1
 297  2.5070901e+05 9.20e-01 3.98e+04  -1.0 9.61e+08    -  1.59e-02 3.27e-06h  6
 298r 2.5070901e+05 9.20e-01 9.99e+02  -0.0 0.00e+00    -  0.00e+00 2.68e-07R 10
 299r 2.5070901e+05 5.12e+00 9.74e+02  -0.0 3.79e+02    -  2.56e-02 2.47e-02f  1
iter    objective    inf_pr   inf_du lg(mu)  ||d||  lg(rg) alpha_du alpha_pr  ls
 300r 2.5070901e+05 1.30e+01 4.64e+03  -0.0 1.50e+05  -2.0 1.09e-04 4.89e-05f  1
 301r 2.5070901e+05 1.02e+01 1.83e+13  -0.0 6.41e+01    -  1.35e-03 7.99e-03h  1
WARNING: Problem in step computation; switching to emergency mode.
 302r 2.5070901e+05 1.02e+01 1.83e+13  -0.0 6.41e+01  19.7 0.00e+00 0.00e+00R  1
WARNING: Problem in step computation; switching to emergency mode.
Restoration phase is called at point that is almost feasible,
  with constraint violation 0.000000e+00. Abort.
Restoration phase in the restoration phase failed.

Number of Iterations....: 302

                                   (scaled)                 (unscaled)
Objective...............:   2.5070900919845345e+05    2.5070900919845345e+05
Dual infeasibility......:   1.8347566978920254e+13    1.8347566978920254e+13
Constraint violation....:   1.0201447223240681e+01    1.0201447223240681e+01
Complementarity.........:   9.5856364958243012e+08    9.5856364958243012e+08
Overall NLP error.......:   1.8347566978920254e+13    1.8347566978920254e+13


Number of objective function evaluations             = 952
Number of objective gradient evaluations             = 116
Number of equality constraint evaluations            = 953
Number of inequality constraint evaluations          = 0
Number of equality constraint Jacobian evaluations   = 313
Number of inequality constraint Jacobian evaluations = 0
Number of Lagrangian Hessian evaluations             = 303
Total CPU secs in IPOPT (w/o function evaluations)   =      0.653
Total CPU secs in NLP function evaluations           =     10.866

EXIT: Restoration Failed!
